//Number of items      		
144
//Bin Capacity      
1000
//Known Best Solution  		
63
//Weight of Item
    1000	 1
     696         1
     690         1
     687         1
     681         1
     679         2
     678         1
     677         1
     676         1
     675         1
     665         1
     658         1
     651         2
     650         1
     645         2
     644         1
     642         1
     640         2
     636         1
     635         1
     631         1
     630         1
     629         1
     616         1
     610         1
     609         1
     607         1
     598         1
     596         1
     595         1
     589         1
     579         1
     578         1
     574         1
     571         1
     570         1
     559         1
     556         1
     555         1
     553         1
     551         1
     545         1
     536         1
     534         1
     530         2
     522         1
     514         1
     510         1
     503         1
     501         1
     496         1
     493         2
     491         1
     488         1
     487         1
     482         1
     476         1
     471         1
     470         1
     465         1
     460         1
     456         1
     455         1
     454         2
     451         1
     444         1
     442         1
     440         1
     439         1
     436         1
     435         1
     434         1
     428         1
     427         1
     424         1
     420         1
     408         1
     403         2
     394         1
     391         1
     385         1
     382         1
     377         2
     374         1
     365         1
     357         2
     355         1
     341         1
     329         1
     328         2
     327         1
     318         1
     312         1
     300         1
     297         1
     294         1
     291         1
     290         1
     284         1
     281         1
     277         2
     265         1
     257         1
     248         1
     245         1
     244         1
     242         1
     236         1
     230         1
     227         1
     225         1
     201         1
     196         1
     191         1
     172         1
     165         1
     164         1
     160         1
     158         1
     157         1
     154         1
     146         1
     145         2
     141         1
     139         1
     136         1
     128         1
     126         1
     123         2
     120         1
     116         1
     111         1
     109         1
     108         1
     105         2
     101         1
      90         1
      88         2
      85         1
      80         1
      77         1
      72         1
      65         1
      64         1
      53         1